c --- [ banner ] -------------------------------------------------------------
c 
c CaDiCaL Radically Simplified CDCL SAT Solver
c Copyright (c) 2016-2021 A. Biere, M. Fleury, N. Froleyks
c 
c Version 1.5.2 a5f15211db36c3956764e18194dd5bd63bf3b5e6
c g++ (GCC) 9.3.0 -Wall -Wextra -O3 -DNDEBUG
c Fri Oct 21 01:27:37 EDT 2022 Linux gra-login3 3.10.0-1160.66.1.el7.x86_64 x86_64
c 
c --- [ limit ] --------------------------------------------------------------
c 
c setting conflict limit to 200000 conflicts (due to '200000')
c 
c --- [ parsing input ] ------------------------------------------------------
c 
c reading DIMACS file from '33.cubes3292.adj'
c opening file to read '33.cubes3292.adj'
c found 'p cnf 6160 1595473' header
c parsed 1595473 clauses in 17.37 seconds process time
c closing file '33.cubes3292.adj'
c after reading 1457566764 bytes 1390.0 MB
c 
c --- [ options ] ------------------------------------------------------------
c 
c all options are set to their default value
c 
c --- [ solving ] ------------------------------------------------------------
c 
c time measured in process time since initialization
c 
c  seconds    reductions  redundant   irredundant
c          MB     restarts       trail       variables
c            level   conflicts       glue         remaining
c 
c * 17.37 1383  0 0   0    0    0  0% 0 1595422 2387 39%
c { 18.54 1445  0 0   0    0    0  0% 0 1595422 2387 39%
c i 20.58 1489 405 0   7   43   38 33% 13 1595422 2386 39%
c i 24.69 1516 147 0  45  219  198 28% 31 1595422 2385 39%
c i 24.71 1517 147 0  46  220  198 28% 31 1595422 2384 39%
c i 24.71 1517 146 0  46  221  198 28% 31 1595422 2383 39%
c i 25.00 1517 147 0  49  232  207 28% 32 1595422 2378 39%
c - 29.55 1461 138 1  63  301  252 27% 34 347249 2375 39%
c i 29.96 1416 130 1  63  327  276 27% 33 347249 2374 39%
c i 30.12 1416 131 1  63  354  299 27% 35 347249 2373 39%
c i 30.17 1416 131 1  65  359  303 27% 35 347249 2372 39%
c i 30.36 1416 123 1  68  390  322 27% 34 347249 2371 38%
c i 30.51 1416 116 1  68  421  349 27% 33 347249 2370 38%
c i 30.91 1417 110 1  72  485  404 28% 34 347249 2369 38%
c i 31.87 1418 112 1  87  559  468 28% 36 347249 2368 38%
c i 32.40 1418 110 1  92  592  495 27% 36 347249 2367 38%
c i 32.54 1418 109 1  92  610  512 27% 35 347249 2366 38%
c i 33.34 1418 93 1 104  864  711 28% 35 347249 2365 38%
c } 34.67 1420 92 1 121 1000  829 28% 36 347249 2365 38%
c [ 34.67 1420  0 1 121 1000  829  0% 0 347249 2365 38%
c 
c  seconds    reductions  redundant  irredundant
c          MB     restarts       trail      variables
c            level   conflicts       glue        remaining
c 
c O 34.69 1420  9 1 121 1002  831 22% 1 347249 2365 38%
c i 34.70 1420  5 1 121 1005  833 16% 1 347249 2315 38%
c i 34.70 1420  4 1 121 1006  833 16% 1 347249 2297 37%
c i 34.91 1420 29 1 121 1069  884 32% 24 347249 2296 37%
c - 35.77 1531 29 2 121 1226  853 33% 25 346186 2296 37%
c i 36.10 1531 31 2 121 1427  985 32% 27 346186 2295 37%
c i 36.15 1531 33 2 121 1500 1026 32% 28 346186 2294 37%
c i 36.37 1531 30 2 121 1932 1273 32% 27 346186 2293 37%
c i 36.41 1531 32 2 121 1983 1309 32% 27 346186 2292 37%
c i 36.46 1531 33 2 122 2072 1361 32% 29 346186 2291 37%
c i 36.72 1531 35 2 122 2405 1560 31% 30 346186 2290 37%
c - 37.18 1529 34 3 122 2612 1248 31% 29 346168 2290 37%
c ] 37.78 1500 32 3 122 3001 1431 49% 28 346168 2290 37%
c { 37.78 1500 92 3 122 3001 1431 75% 36 346168 2290 37%
c F 37.82 1500 92 3 122 3003 1433 75% 36 346168 2290 37%
c i 38.16 1500 83 3 122 3191 1604 71% 34 346168 2289 37%
c i 38.35 1500 82 3 122 3218 1627 70% 34 346168 2288 37%
c i 39.72 1500 77 3 151 3504 1856 66% 34 346168 2287 37%
c - 42.13 1499 61 4 157 4462 1975 59% 30 346159 2287 37%
c 3 43.34 1499 55 4 157 5000 3400 58% 28 346151 2283 37%
c 
c  seconds    reductions  redundant   irredundant
c          MB     restarts       trail       variables
c            level   conflicts       glue         remaining
c 
c 2 43.41 1499 55 4 157 5000 3440 58% 28 346151 2279 37%
c p 49.51 1499 55 4 157 5000 7534 58% 28 346151 2236 36%
c d 50.01 1499 55 4 157 5000 7481 58% 28 346012 2233 36%
c # 52.49 1499 48 4 173 6005 8266 55% 26 346012 2233 36%
c - 53.91 1342 45 5 175 6770 3066 54% 25 346012 2233 36%
c } 54.08 1342 44 5 175 7004 3232 54% 25 346012 2233 36%
c [ 54.08 1342 32 5 175 7004 3232 49% 28 346012 2233 36%
c - 56.69 1343 29 6 177 9540 3333 50% 25 346012 2233 36%
c I 57.11 1343 29 6 177 10006 3609 50% 24 346012 2233 36%
c - 60.05 1343 33 7 179 12774 3821 50% 27 346012 2233 36%
c 2 61.67 1343 35 7 180 15002 6693 50% 28 346010 2233 36%
c p 63.72 1343 35 7 180 15002 10553 50% 28 346010 2233 36%
c ] 63.82 1343 35 7 180 15004 10555 50% 28 346010 2233 36%
c { 63.82 1343 44 7 180 15004 10555 54% 25 346010 2233 36%
c B 64.00 1343 44 7 180 15007 10558 54% 25 346010 2233 36%
c - 67.16 1343 42 8 224 16467 4886 53% 25 346010 2233 36%
c s 72.09 1343 40 8 319 18770 6460 53% 24 343938 2233 36%
c v 77.47 1344 40 8 319 18770 6460 53% 24 343913 2233 36%
c t 77.59 1344 40 8 319 18770 6452 53% 24 343907 2233 36%
c e 78.55 1345 40 8 319 18770 6135 53% 24 341584 982 16%
c 
c  seconds    reductions   redundant   irredundant
c          MB     restarts        trail       variables
c            level    conflicts       glue        remaining
c 
c s 78.65 1345 40 8 319 18770 6135 53% 24 338956 982 16%
c - 81.35 1345 37 9 337 20625 5104 73% 24 338956 982 16%
c W 82.37 1345 37 9 374 21008 5386 73% 24 338956 982 16%
c - 91.76 1345 36 10 619 25217 5898 71% 23 338956 982 16%
c F 102.30 1345 38 10 932 28009 8068 70% 25 338956 982 16%
c p 112.71 1345 38 10 1079 30002 12495 70% 25 338956 981 16%
c - 113.96 1345 38 11 1107 30267 7251 70% 25 338953 981 16%
c } 114.47 1345 37 11 1107 31004 7750 70% 24 338953 981 16%
c [ 114.47 1345 35 11 1107 31004 7750 116% 28 338953 981 16%
c ] 115.28 1345 33 11 1107 33175 9035 106% 27 338953 981 16%
c 1 115.28 1345 33 11 1107 33175 9035 106% 27 338953 981 16%
c 
c --- [ writing output ] -----------------------------------------------------
c 
c writing simplified CNF to DIMACS file 'simp/33.cubes3292.adj.simp1'
c * 115.28 1345 33 11 1107 33175 9035 106% 27 338953 981 16%
c opening file to write 'simp/33.cubes3292.adj.simp1'
c writing 'p cnf 6160 338953' header
c closing file 'simp/33.cubes3292.adj.simp1'
c after writing 180464739 bytes 172.1 MB
c wrote 338953 clauses in 1.10 seconds process time
c 
c --- [ writing extension ] --------------------------------------------------
c 
c writing extension stack to 'simp/33.cubes3292.adj.ext1'
c opening file to write 'simp/33.cubes3292.adj.ext1'
c closing file 'simp/33.cubes3292.adj.ext1'
c after writing 80533 bytes 0.1 MB
c wrote 3603 witnesses in 0.00 seconds process time
c 
c --- [ result ] -------------------------------------------------------------
c 
s SATISFIABLE
c 
c --- [ run-time profiling ] -------------------------------------------------
c 
c process time taken by individual solving procedures
c (percentage relative to process time for solving)
c 
c        77.08   78.73% search
c        64.25   65.62% unstable
c        20.83   21.27% simplify
c        17.37   17.74% parse
c        12.10   12.36% probe
c        11.50   11.75% stable
c         5.45    5.57% vivify
c         1.79    1.83% elim
c         1.16    1.19% lucky
c         0.19    0.19% subsume
c         0.17    0.17% walk
c         0.15    0.15% ternary
c   =================================
c        97.91   84.13% solve
c 
c last line shows process time for solving
c (percentage relative to total process time)
c 
c --- [ statistics ] ---------------------------------------------------------
c 
c chronological:              7465        22.50 %  of conflicts
c conflicts:                 33175       338.83    per second
c decisions:                119332      1218.79    per second
c eliminated:                 1251        20.31 %  of all variables
c fixed:                       777        12.61 %  of all variables
c learned:                   32244        97.19 %  per conflict
c learned_lits:            5884309       100.00 %  learned literals
c minimized:                     0         0.00 %  learned literals
c shrunken:                3663089        62.25 %  learned literals
c minishrunken:             420928         7.15 %  learned literals
c propagations:            4053314         0.04 M  per second
c reduced:                   14800        44.61 %  per conflict
c rephased:                      7      4739.29    interval
c restarts:                   1107        29.97    interval
c stabilizing:                   3        36.69 %  of conflicts
c substituted:                   7         0.11 %  of all variables
c subsumed:                  12941         0.38 %  of all clauses
c strengthened:               3835         0.11 %  of all clauses
c ternary:                    2720         0.60 %  of resolved
c vivified:                     44         0.00 %  of all clauses
c walked:                        1     33175.00    interval
c weakened:                   2826         3.06    average size
c 
c seconds are measured in process time for solving
c 
c --- [ resources ] ----------------------------------------------------------
c 
c total process time since initialization:       116.38    seconds
c total real time since initialization:          127.25    seconds
c maximum resident set size of process:         1689.96    MB
c 
c --- [ shutting down ] ------------------------------------------------------
c 
c exit 10
WARNING! DIMACS header mismatch: wrong number of variables.
============================[ Problem Statistics ]=============================
|                                                                             |
|  Number of variables:          3491                                         |
|  Number of clauses:          338953                                         |
|  Parse time:                   2.52 s                                       |
|  Simplification time:          0.07 s                                       |
|                                                                             |
============================[ Search Statistics ]====================================================
| Conflicts |          ORIGINAL         |          LEARNT          | Num Sols |      SUBGRAPHS      |
|           |    Vars  Clauses Literals |    Limit  Clauses Lit/Cl |          | Canonical Noncanon. |
=====================================================================================================
|       152 |    3399   339005 38407209 |     2000      152    108 |        0 |        36        52 |
|       303 |    3399   339006 38407229 |     2000      303    105 |        0 |        41        53 |
|       586 |    3399   339064 38408759 |     2000      586    105 |        0 |        64       111 |
|       981 |    3399   339122 38409755 |     2000      981    107 |        0 |        85       169 |
|      1637 |    3399   339272 38412885 |     2000     1637     98 |        0 |       128       319 |
|      2467 |    3399   339343 38414864 |     3602     1469     71 |        0 |       140       390 |
|      3926 |    3399   339663 38420550 |     3602     2928     86 |        0 |       239       710 |
|      5749 |    3399   339778 38422858 |     5005     2954     59 |        0 |       324       825 |
|      8351 |    3399   339818 38423829 |     6309     3060     43 |        0 |       375       865 |
|     12305 |    3399   339928 38426257 |     7559     3864     40 |        0 |       436       975 |
|     18322 |    3399   340179 38433146 |     8791     6113     58 |        0 |       586      1226 |
|     27937 |    3399   341145 38452470 |    11206     6343     40 |        0 |       944      2192 |
|     41843 |    3399   342077 38472177 |    13609     8452     51 |        0 |      1295      3124 |
|     64961 |    3399   345734 38537956 |    17214     9375     32 |        0 |      1976      6781 |
|     96134 |    3399   347715 38573211 |    20815    12949     46 |        0 |      2638      8762 |
|    143146 |    3399   350938 38634987 |    25606    14752     33 |        0 |      4099     11985 |
|    215123 |    3399   357231 38730674 |    31612    16735     27 |        0 |      6005     18278 |
|    321421 |    3399   365003 38858185 |    38813    19234     18 |        0 |      8399     26050 |
|    470059 |    3399   365852 38883068 |    46017    42476     62 |        0 |      8565     26899 |
|    693254 |    3399   367364 38924038 |    56815    37069     37 |        0 |      8930     28411 |
|   1027274 |    3399   368859 38962909 |    68818    60092     53 |        0 |      9301     29906 |
|   1557823 |    3399   400620 39643909 |    85621    54444     42 |        0 |     20055     61667 |
|   2338940 |    3399   433555 40137578 |   104820    78760     56 |        3 |     28301     94599 |
|   3537313 |    3399   509654 41654385 |   128820   115133     50 |       11 |     49932    170690 |
|   5276589 |    3399   565519 42783364 |   157621   143210     59 |       29 |     61652    226537 |
|   7946381 |    3399   710195 45551753 |   193619   188000     68 |       36 |     98761    371206 |
|  11980507 |    3349   508224 38733237 |   232466   115173     29 |       42 |    161773    617651 |
=====================================================================================================
Number of solutions   : 42
Canonical subgraphs   : 162016         (6 /sec)
          order  3    : 1              (250000 /sec)
          order  4    : 1              (500000 /sec)
          order  5    : 1              (200000 /sec)
          order  6    : 1              (52632 /sec)
          order  7    : 1              (8403 /sec)
          order  8    : 2              (1300 /sec)
          order  9    : 4              (228 /sec)
          order 10    : 12             (54 /sec)
          order 11    : 53             (16 /sec)
          order 12    : 350            (5 /sec)
          order 13    : 2194           (4 /sec)
          order 14    : 19228          (6 /sec)
          order 15    : 34423          (8 /sec)
          order 16    : 83739          (6 /sec)
          order 17    : 15236          (5 /sec)
          order 18    : 4718           (5 /sec)
          order 19    : 1436           (4 /sec)
          order 20    : 386            (5 /sec)
          order 21    : 188            (7 /sec)
          order 22    : 42             (1 /sec)
Noncanonical subgraphs: 620317         (73 /sec)
          order  3    : 0              (-nan /sec)
          order  4    : 0              (-nan /sec)
          order  5    : 0              (-nan /sec)
          order  6    : 0              (-nan /sec)
          order  7    : 0              (-nan /sec)
          order  8    : 0              (-nan /sec)
          order  9    : 0              (-nan /sec)
          order 10    : 0              (-nan /sec)
          order 11    : 0              (-nan /sec)
          order 12    : 0              (-nan /sec)
          order 13    : 7524           (8149 /sec)
          order 14    : 38790          (2136 /sec)
          order 15    : 247919         (335 /sec)
          order 16    : 48966          (317 /sec)
          order 17    : 272792         (37 /sec)
          order 18    : 3540           (32 /sec)
          order 19    : 590            (14 /sec)
          order 20    : 7              (185 /sec)
          order 21    : 15             (169 /sec)
Canonicity checking   : 26157.1 s
Noncanonicity checking: 8549.22 s
Total canonicity time : 34706.4 s
database reductions   : 197
restarts              : 17514
conflicts             : 12029714       (303 /sec)
decisions             : 16137877       (0.00 % random) (406 /sec)
propagations          : 584686893      (14707 /sec)
conflict literals     : 1294248861     (56.91 % deleted)
actual reward         : 0.255731
Memory used           : 644.00 MB
CPU time              : 39756.4 s

UNSATISFIABLE
